graph_generation/data/cp/rcsp/hexagonal_lattice_N_12_weights-one_windows-loose.dzn
N = 336;
M = 828;
Edge_Start = [1, 2, 3, 4, 5, 5, 6, 7, 7, 9, 9, 10, 11, 11, 12, 13, 15, 16, 17, 18, 19, 19, 20, 21, 21, 22, 23, 23, 25, 26, 27, 27, 28, 29, 29, 30, 31, 31, 32, 33, 34, 35, 36, 37, 37, 38, 39, 39, 40, 41, 41, 42, 43, 43, 44, 45, 45, 46, 47, 47, 48, 49, 49, 50, 51, 52, 53, 54, 54, 55, 56, 56, 57, 58, 58, 59, 60, 60, 61, 62, 62, 63, 64, 64, 65, 66, 67, 68, 68, 70, 71, 72, 73, 74, 75, 76, 76, 78, 79, 80, 81, 81, 82, 83, 84, 85, 86, 87, 88, 89, 89, 91, 91, 92, 93, 93, 94, 95, 95, 96, 97, 98, 99, 99, 100, 101, 101, 102, 103, 104, 104, 105, 106, 106, 108, 109, 110, 110, 111, 112, 112, 113, 114, 116, 116, 117, 118, 118, 119, 120, 120, 121, 122, 124, 125, 126, 127, 128, 128, 130, 131, 131, 132, 133, 133, 134, 135, 135, 136, 138, 139, 139, 140, 141, 141, 142, 143, 145, 145, 146, 147, 147, 149, 149, 150, 151, 151, 153, 154, 155, 156, 156, 158, 158, 159, 160, 160, 161, 162, 162, 163, 164, 164, 165, 166, 166, 167, 168, 170, 170, 171, 172, 172, 173, 174, 174, 175, 176, 176, 177, 178, 178, 179, 180, 180, 182, 183, 183, 184, 185, 185, 186, 187, 187, 188, 189, 189, 190, 191, 191, 192, 193, 193, 194, 195, 195, 196, 197, 198, 199, 199, 200, 201, 201, 202, 203, 203, 204, 205, 205, 206, 207, 208, 208, 209, 210, 210, 211, 212, 212, 213, 214, 214, 215, 216, 216, 217, 218, 219, 220, 220, 221, 222, 223, 224, 224, 226, 226, 227, 228, 228, 229, 230, 230, 231, 232, 232, 234, 235, 236, 237, 237, 238, 239, 239, 240, 241, 241, 242, 243, 243, 244, 245, 246, 247, 248, 249, 249, 250, 251, 251, 252, 253, 255, 256, 257, 257, 258, 259, 260, 260, 262, 262, 263, 265, 266, 267, 268, 268, 269, 270, 270, 271, 272, 273, 274, 274, 275, 276, 276, 278, 278, 280, 280, 281, 282, 282, 283, 284, 284, 286, 287, 287, 288, 289, 289, 290, 291, 291, 292, 293, 294, 295, 296, 297, 297, 298, 299, 301, 301, 302, 303, 303, 304, 306, 307, 307, 308, 309, 309, 310, 311, 312, 313, 314, 315, 316, 317, 318, 319, 321, 322, 323, 324, 326, 327, 328, 329, 330, 331, 332, 333, 334, 335, 2, 3, 28, 5, 6, 30, 7, 8, 32, 10, 34, 11, 12, 36, 13, 14, 40, 17, 42, 19, 20, 44, 21, 22, 46, 23, 24, 48, 50, 27, 28, 53, 29, 30, 55, 31, 32, 57, 33, 34, 35, 36, 37, 38, 63, 39, 40, 65, 41, 42, 67, 43, 44, 69, 45, 46, 71, 47, 48, 73, 49, 50, 75, 51, 77, 78, 54, 55, 80, 56, 57, 82, 58, 59, 84, 60, 61, 86, 62, 63, 88, 64, 65, 90, 66, 67, 68, 69, 94, 96, 72, 98, 74, 75, 76, 77, 102, 79, 105, 81, 82, 107, 83, 84, 85, 86, 87, 113, 89, 90, 115, 92, 117, 93, 94, 119, 95, 96, 121, 97, 98, 99, 100, 125, 101, 102, 127, 103, 129, 105, 130, 106, 107, 132, 109, 110, 111, 136, 112, 113, 138, 114, 115, 117, 142, 118, 119, 144, 120, 121, 146, 122, 123, 125, 126, 127, 128, 129, 154, 131, 132, 157, 133, 134, 159, 135, 136, 161, 137, 139, 140, 165, 141, 142, 167, 143, 169, 146, 171, 147, 148, 173, 150, 175, 151, 152, 177, 179, 155, 181, 157, 182, 159, 184, 160, 161, 186, 162, 163, 188, 164, 165, 190, 166, 167, 192, 168, 194, 171, 196, 172, 173, 198, 174, 175, 200, 176, 177, 202, 178, 179, 204, 180, 181, 206, 183, 184, 209, 185, 186, 211, 187, 188, 213, 189, 190, 215, 191, 192, 217, 193, 194, 219, 195, 196, 221, 197, 223, 199, 200, 225, 201, 202, 227, 203, 204, 229, 205, 206, 231, 207, 233, 209, 234, 210, 211, 236, 212, 213, 238, 214, 215, 240, 216, 217, 242, 218, 244, 220, 221, 246, 222, 223, 224, 225, 250, 227, 252, 228, 229, 254, 230, 231, 256, 232, 233, 258, 235, 261, 237, 238, 263, 239, 240, 265, 241, 242, 267, 243, 244, 269, 245, 271, 247, 248, 249, 250, 275, 251, 252, 277, 253, 279, 256, 257, 258, 283, 259, 285, 261, 286, 263, 288, 264, 266, 267, 268, 269, 294, 270, 271, 296, 272, 273, 274, 275, 300, 276, 277, 302, 279, 304, 281, 306, 282, 283, 308, 284, 285, 310, 287, 288, 312, 289, 290, 314, 291, 292, 316, 293, 318, 295, 320, 297, 298, 322, 299, 324, 302, 326, 303, 304, 328, 305, 307, 308, 332, 309, 310, 334, 311, 336, 313, 314, 315, 316, 317, 318, 319, 320, 322, 323, 324, 325, 327, 328, 329, 330, 331, 332, 333, 334, 335, 336];
Edge_End = [2, 3, 28, 5, 6, 30, 7, 8, 32, 10, 34, 11, 12, 36, 13, 14, 40, 17, 42, 19, 20, 44, 21, 22, 46, 23, 24, 48, 50, 27, 28, 53, 29, 30, 55, 31, 32, 57, 33, 34, 35, 36, 37, 38, 63, 39, 40, 65, 41, 42, 67, 43, 44, 69, 45, 46, 71, 47, 48, 73, 49, 50, 75, 51, 77, 78, 54, 55, 80, 56, 57, 82, 58, 59, 84, 60, 61, 86, 62, 63, 88, 64, 65, 90, 66, 67, 68, 69, 94, 96, 72, 98, 74, 75, 76, 77, 102, 79, 105, 81, 82, 107, 83, 84, 85, 86, 87, 113, 89, 90, 115, 92, 117, 93, 94, 119, 95, 96, 121, 97, 98, 99, 100, 125, 101, 102, 127, 103, 129, 105, 130, 106, 107, 132, 109, 110, 111, 136, 112, 113, 138, 114, 115, 117, 142, 118, 119, 144, 120, 121, 146, 122, 123, 125, 126, 127, 128, 129, 154, 131, 132, 157, 133, 134, 159, 135, 136, 161, 137, 139, 140, 165, 141, 142, 167, 143, 169, 146, 171, 147, 148, 173, 150, 175, 151, 152, 177, 179, 155, 181, 157, 182, 159, 184, 160, 161, 186, 162, 163, 188, 164, 165, 190, 166, 167, 192, 168, 194, 171, 196, 172, 173, 198, 174, 175, 200, 176, 177, 202, 178, 179, 204, 180, 181, 206, 183, 184, 209, 185, 186, 211, 187, 188, 213, 189, 190, 215, 191, 192, 217, 193, 194, 219, 195, 196, 221, 197, 223, 199, 200, 225, 201, 202, 227, 203, 204, 229, 205, 206, 231, 207, 233, 209, 234, 210, 211, 236, 212, 213, 238, 214, 215, 240, 216, 217, 242, 218, 244, 220, 221, 246, 222, 223, 224, 225, 250, 227, 252, 228, 229, 254, 230, 231, 256, 232, 233, 258, 235, 261, 237, 238, 263, 239, 240, 265, 241, 242, 267, 243, 244, 269, 245, 271, 247, 248, 249, 250, 275, 251, 252, 277, 253, 279, 256, 257, 258, 283, 259, 285, 261, 286, 263, 288, 264, 266, 267, 268, 269, 294, 270, 271, 296, 272, 273, 274, 275, 300, 276, 277, 302, 279, 304, 281, 306, 282, 283, 308, 284, 285, 310, 287, 288, 312, 289, 290, 314, 291, 292, 316, 293, 318, 295, 320, 297, 298, 322, 299, 324, 302, 326, 303, 304, 328, 305, 307, 308, 332, 309, 310, 334, 311, 336, 313, 314, 315, 316, 317, 318, 319, 320, 322, 323, 324, 325, 327, 328, 329, 330, 331, 332, 333, 334, 335, 336, 1, 2, 3, 4, 5, 5, 6, 7, 7, 9, 9, 10, 11, 11, 12, 13, 15, 16, 17, 18, 19, 19, 20, 21, 21, 22, 23, 23, 25, 26, 27, 27, 28, 29, 29, 30, 31, 31, 32, 33, 34, 35, 36, 37, 37, 38, 39, 39, 40, 41, 41, 42, 43, 43, 44, 45, 45, 46, 47, 47, 48, 49, 49, 50, 51, 52, 53, 54, 54, 55, 56, 56, 57, 58, 58, 59, 60, 60, 61, 62, 62, 63, 64, 64, 65, 66, 67, 68, 68, 70, 71, 72, 73, 74, 75, 76, 76, 78, 79, 80, 81, 81, 82, 83, 84, 85, 86, 87, 88, 89, 89, 91, 91, 92, 93, 93, 94, 95, 95, 96, 97, 98, 99, 99, 100, 101, 101, 102, 103, 104, 104, 105, 106, 106, 108, 109, 110, 110, 111, 112, 112, 113, 114, 116, 116, 117, 118, 118, 119, 120, 120, 121, 122, 124, 125, 126, 127, 128, 128, 130, 131, 131, 132, 133, 133, 134, 135, 135, 136, 138, 139, 139, 140, 141, 141, 142, 143, 145, 145, 146, 147, 147, 149, 149, 150, 151, 151, 153, 154, 155, 156, 156, 158, 158, 159, 160, 160, 161, 162, 162, 163, 164, 164, 165, 166, 166, 167, 168, 170, 170, 171, 172, 172, 173, 174, 174, 175, 176, 176, 177, 178, 178, 179, 180, 180, 182, 183, 183, 184, 185, 185, 186, 187, 187, 188, 189, 189, 190, 191, 191, 192, 193, 193, 194, 195, 195, 196, 197, 198, 199, 199, 200, 201, 201, 202, 203, 203, 204, 205, 205, 206, 207, 208, 208, 209, 210, 210, 211, 212, 212, 213, 214, 214, 215, 216, 216, 217, 218, 219, 220, 220, 221, 222, 223, 224, 224, 226, 226, 227, 228, 228, 229, 230, 230, 231, 232, 232, 234, 235, 236, 237, 237, 238, 239, 239, 240, 241, 241, 242, 243, 243, 244, 245, 246, 247, 248, 249, 249, 250, 251, 251, 252, 253, 255, 256, 257, 257, 258, 259, 260, 260, 262, 262, 263, 265, 266, 267, 268, 268, 269, 270, 270, 271, 272, 273, 274, 274, 275, 276, 276, 278, 278, 280, 280, 281, 282, 282, 283, 284, 284, 286, 287, 287, 288, 289, 289, 290, 291, 291, 292, 293, 294, 295, 296, 297, 297, 298, 299, 301, 301, 302, 303, 303, 304, 306, 307, 307, 308, 309, 309, 310, 311, 312, 313, 314, 315, 316, 317, 318, 319, 321, 322, 323, 324, 326, 327, 328, 329, 330, 331, 332, 333, 334, 335];
L = [1, 1, 1, 1, 1, 1, 1, 1, 1, 1, 1, 1, 1, 1, 1, 1, 1, 1, 1, 1, 1, 1, 1, 1, 1, 1, 1, 1, 1, 1, 1, 1, 1, 1, 1, 1, 1, 1, 1, 1, 1, 1, 1, 1, 1, 1, 1, 1, 1, 1, 1, 1, 1, 1, 1, 1, 1, 1, 1, 1, 1, 1, 1, 1, 1, 1, 1, 1, 1, 1, 1, 1, 1, 1, 1, 1, 1, 1, 1, 1, 1, 1, 1, 1, 1, 1, 1, 1, 1, 1, 1, 1, 1, 1, 1, 1, 1, 1, 1, 1, 1, 1, 1, 1, 1, 1, 1, 1, 1, 1, 1, 1, 1, 1, 1, 1, 1, 1, 1, 1, 1, 1, 1, 1, 1, 1, 1, 1, 1, 1, 1, 1, 1, 1, 1, 1, 1, 1, 1, 1, 1, 1, 1, 1, 1, 1, 1, 1, 1, 1, 1, 1, 1, 1, 1, 1, 1, 1, 1, 1, 1, 1, 1, 1, 1, 1, 1, 1, 1, 1, 1, 1, 1, 1, 1, 1, 1, 1, 1, 1, 1, 1, 1, 1, 1, 1, 1, 1, 1, 1, 1, 1, 1, 1, 1, 1, 1, 1, 1, 1, 1, 1, 1, 1, 1, 1, 1, 1, 1, 1, 1, 1, 1, 1, 1, 1, 1, 1, 1, 1, 1, 1, 1, 1, 1, 1, 1, 1, 1, 1, 1, 1, 1, 1, 1, 1, 1, 1, 1, 1, 1, 1, 1, 1, 1, 1, 1, 1, 1, 1, 1, 1, 1, 1, 1, 1, 1, 1, 1, 1, 1, 1, 1, 1, 1, 1, 1, 1, 1, 1, 1, 1, 1, 1, 1, 1, 1, 1, 1, 1, 1, 1, 1, 1, 1, 1, 1, 1, 1, 1, 1, 1, 1, 1, 1, 1, 1, 1, 1, 1, 1, 1, 1, 1, 1, 1, 1, 1, 1, 1, 1, 1, 1, 1, 1, 1, 1, 1, 1, 1, 1, 1, 1, 1, 1, 1, 1, 1, 1, 1, 1, 1, 1, 1, 1, 1, 1, 1, 1, 1, 1, 1, 1, 1, 1, 1, 1, 1, 1, 1, 1, 1, 1, 1, 1, 1, 1, 1, 1, 1, 1, 1, 1, 1, 1, 1, 1, 1, 1, 1, 1, 1, 1, 1, 1, 1, 1, 1, 1, 1, 1, 1, 1, 1, 1, 1, 1, 1, 1, 1, 1, 1, 1, 1, 1, 1, 1, 1, 1, 1, 1, 1, 1, 1, 1, 1, 1, 1, 1, 1, 1, 1, 1, 1, 1, 1, 1, 1, 1, 1, 1, 1, 1, 1, 1, 1, 1, 1, 1, 1, 1, 1, 1, 1, 1, 1, 1, 1, 1, 1, 1, 1, 1, 1, 1, 1, 1, 1, 1, 1, 1, 1, 1, 1, 1, 1, 1, 1, 1, 1, 1, 1, 1, 1, 1, 1, 1, 1, 1, 1, 1, 1, 1, 1, 1, 1, 1, 1, 1, 1, 1, 1, 1, 1, 1, 1, 1, 1, 1, 1, 1, 1, 1, 1, 1, 1, 1, 1, 1, 1, 1, 1, 1, 1, 1, 1, 1, 1, 1, 1, 1, 1, 1, 1, 1, 1, 1, 1, 1, 1, 1, 1, 1, 1, 1, 1, 1, 1, 1, 1, 1, 1, 1, 1, 1, 1, 1, 1, 1, 1, 1, 1, 1, 1, 1, 1, 1, 1, 1, 1, 1, 1, 1, 1, 1, 1, 1, 1, 1, 1, 1, 1, 1, 1, 1, 1, 1, 1, 1, 1, 1, 1, 1, 1, 1, 1, 1, 1, 1, 1, 1, 1, 1, 1, 1, 1, 1, 1, 1, 1, 1, 1, 1, 1, 1, 1, 1, 1, 1, 1, 1, 1, 1, 1, 1, 1, 1, 1, 1, 1, 1, 1, 1, 1, 1, 1, 1, 1, 1, 1, 1, 1, 1, 1, 1, 1, 1, 1, 1, 1, 1, 1, 1, 1, 1, 1, 1, 1, 1, 1, 1, 1, 1, 1, 1, 1, 1, 1, 1, 1, 1, 1, 1, 1, 1, 1, 1, 1, 1, 1, 1, 1, 1, 1, 1, 1, 1, 1, 1, 1, 1, 1, 1, 1, 1, 1, 1, 1, 1, 1, 1, 1, 1, 1, 1, 1, 1, 1, 1, 1, 1, 1, 1, 1, 1, 1, 1, 1, 1, 1, 1, 1, 1, 1, 1, 1, 1, 1, 1, 1, 1, 1, 1, 1, 1, 1, 1, 1, 1, 1, 1, 1, 1, 1, 1, 1, 1, 1, 1, 1, 1, 1, 1, 1, 1, 1, 1, 1, 1, 1, 1, 1, 1, 1, 1, 1, 1, 1, 1, 1, 1, 1, 1, 1, 1, 1, 1, 1, 1, 1, 1, 1, 1, 1, 1, 1, 1, 1, 1, 1, 1, 1, 1, 1, 1, 1, 1, 1, 1, 1, 1, 1, 1, 1, 1, 1, 1, 1, 1, 1, 1, 1, 1, 1, 1, 1, 1, 1, 1, 1, 1, 1, 1, 1, 1, 1, 1, 1, 1, 1, 1, 1, 1, 1, 1, 1, 1, 1, 1, 1, 1, 1, 1, 1, 1, 1, 1, 1];
T = [1, 1, 1, 1, 1, 1, 1, 1, 1, 1, 1, 1, 1, 1, 1, 1, 1, 1, 1, 1, 1, 1, 1, 1, 1, 1, 1, 1, 1, 1, 1, 1, 1, 1, 1, 1, 1, 1, 1, 1, 1, 1, 1, 1, 1, 1, 1, 1, 1, 1, 1, 1, 1, 1, 1, 1, 1, 1, 1, 1, 1, 1, 1, 1, 1, 1, 1, 1, 1, 1, 1, 1, 1, 1, 1, 1, 1, 1, 1, 1, 1, 1, 1, 1, 1, 1, 1, 1, 1, 1, 1, 1, 1, 1, 1, 1, 1, 1, 1, 1, 1, 1, 1, 1, 1, 1, 1, 1, 1, 1, 1, 1, 1, 1, 1, 1, 1, 1, 1, 1, 1, 1, 1, 1, 1, 1, 1, 1, 1, 1, 1, 1, 1, 1, 1, 1, 1, 1, 1, 1, 1, 1, 1, 1, 1, 1, 1, 1, 1, 1, 1, 1, 1, 1, 1, 1, 1, 1, 1, 1, 1, 1, 1, 1, 1, 1, 1, 1, 1, 1, 1, 1, 1, 1, 1, 1, 1, 1, 1, 1, 1, 1, 1, 1, 1, 1, 1, 1, 1, 1, 1, 1, 1, 1, 1, 1, 1, 1, 1, 1, 1, 1, 1, 1, 1, 1, 1, 1, 1, 1, 1, 1, 1, 1, 1, 1, 1, 1, 1, 1, 1, 1, 1, 1, 1, 1, 1, 1, 1, 1, 1, 1, 1, 1, 1, 1, 1, 1, 1, 1, 1, 1, 1, 1, 1, 1, 1, 1, 1, 1, 1, 1, 1, 1, 1, 1, 1, 1, 1, 1, 1, 1, 1, 1, 1, 1, 1, 1, 1, 1, 1, 1, 1, 1, 1, 1, 1, 1, 1, 1, 1, 1, 1, 1, 1, 1, 1, 1, 1, 1, 1, 1, 1, 1, 1, 1, 1, 1, 1, 1, 1, 1, 1, 1, 1, 1, 1, 1, 1, 1, 1, 1, 1, 1, 1, 1, 1, 1, 1, 1, 1, 1, 1, 1, 1, 1, 1, 1, 1, 1, 1, 1, 1, 1, 1, 1, 1, 1, 1, 1, 1, 1, 1, 1, 1, 1, 1, 1, 1, 1, 1, 1, 1, 1, 1, 1, 1, 1, 1, 1, 1, 1, 1, 1, 1, 1, 1, 1, 1, 1, 1, 1, 1, 1, 1, 1, 1, 1, 1, 1, 1, 1, 1, 1, 1, 1, 1, 1, 1, 1, 1, 1, 1, 1, 1, 1, 1, 1, 1, 1, 1, 1, 1, 1, 1, 1, 1, 1, 1, 1, 1, 1, 1, 1, 1, 1, 1, 1, 1, 1, 1, 1, 1, 1, 1, 1, 1, 1, 1, 1, 1, 1, 1, 1, 1, 1, 1, 1, 1, 1, 1, 1, 1, 1, 1, 1, 1, 1, 1, 1, 1, 1, 1, 1, 1, 1, 1, 1, 1, 1, 1, 1, 1, 1, 1, 1, 1, 1, 1, 1, 1, 1, 1, 1, 1, 1, 1, 1, 1, 1, 1, 1, 1, 1, 1, 1, 1, 1, 1, 1, 1, 1, 1, 1, 1, 1, 1, 1, 1, 1, 1, 1, 1, 1, 1, 1, 1, 1, 1, 1, 1, 1, 1, 1, 1, 1, 1, 1, 1, 1, 1, 1, 1, 1, 1, 1, 1, 1, 1, 1, 1, 1, 1, 1, 1, 1, 1, 1, 1, 1, 1, 1, 1, 1, 1, 1, 1, 1, 1, 1, 1, 1, 1, 1, 1, 1, 1, 1, 1, 1, 1, 1, 1, 1, 1, 1, 1, 1, 1, 1, 1, 1, 1, 1, 1, 1, 1, 1, 1, 1, 1, 1, 1, 1, 1, 1, 1, 1, 1, 1, 1, 1, 1, 1, 1, 1, 1, 1, 1, 1, 1, 1, 1, 1, 1, 1, 1, 1, 1, 1, 1, 1, 1, 1, 1, 1, 1, 1, 1, 1, 1, 1, 1, 1, 1, 1, 1, 1, 1, 1, 1, 1, 1, 1, 1, 1, 1, 1, 1, 1, 1, 1, 1, 1, 1, 1, 1, 1, 1, 1, 1, 1, 1, 1, 1, 1, 1, 1, 1, 1, 1, 1, 1, 1, 1, 1, 1, 1, 1, 1, 1, 1, 1, 1, 1, 1, 1, 1, 1, 1, 1, 1, 1, 1, 1, 1, 1, 1, 1, 1, 1, 1, 1, 1, 1, 1, 1, 1, 1, 1, 1, 1, 1, 1, 1, 1, 1, 1, 1, 1, 1, 1, 1, 1, 1, 1, 1, 1, 1, 1, 1, 1, 1, 1, 1, 1, 1, 1, 1, 1, 1, 1, 1, 1, 1, 1, 1, 1, 1, 1, 1, 1, 1, 1, 1, 1, 1, 1, 1, 1, 1, 1, 1, 1, 1, 1, 1, 1, 1, 1, 1, 1, 1, 1, 1, 1, 1, 1, 1, 1, 1, 1, 1, 1, 1, 1, 1, 1, 1, 1, 1, 1, 1, 1, 1, 1, 1, 1, 1, 1, 1, 1, 1, 1, 1, 1, 1, 1, 1, 1, 1, 1, 1, 1, 1, 1, 1, 1, 1, 1, 1, 1, 1, 1, 1, 1, 1, 1, 1, 1, 1, 1, 1, 1, 1, 1, 1, 1];
Lower_Bound = [0, 2, 2, 7, 8, 8, 8, 10, 12, 11, 12, 13, 18, 15, 16, 20, 19, 21, 20, 22, 23, 23, 24, 25, 26, 5, 4, 3, 4, 5, 6, 7, 8, 9, 11, 11, 12, 15, 14, 15, 16, 17, 18, 20, 20, 21, 22, 25, 24, 25, 26, 15, 5, 6, 6, 6, 7, 8, 11, 10, 11, 12, 13, 14, 15, 16, 17, 18, 20, 22, 22, 22, 24, 24, 25, 26, 29, 14, 12, 7, 8, 7, 8, 9, 10, 15, 13, 13, 16, 15, 22, 22, 22, 19, 21, 21, 22, 23, 25, 25, 26, 27, 29, 13, 15, 10, 10, 18, 18, 16, 16, 16, 14, 14, 15, 21, 21, 22, 21, 22, 21, 22, 23, 26, 25, 26, 28, 28, 29, 14, 12, 11, 12, 13, 15, 15, 16, 16, 17, 17, 18, 19, 20, 23, 24, 23, 24, 25, 28, 30, 30, 31, 32, 30, 30, 14, 13, 14, 13, 16, 15, 17, 17, 19, 17, 19, 20, 21, 21, 25, 25, 29, 25, 26, 27, 28, 29, 30, 31, 32, 31, 15, 16, 16, 19, 15, 16, 17, 21, 19, 21, 19, 20, 21, 22, 24, 25, 31, 28, 27, 28, 29, 30, 31, 33, 33, 34, 18, 17, 18, 18, 18, 17, 18, 19, 20, 21, 23, 22, 24, 23, 24, 25, 27, 27, 30, 31, 30, 31, 32, 36, 34, 35, 20, 20, 19, 22, 19, 20, 19, 20, 21, 22, 23, 24, 23, 25, 25, 33, 27, 28, 31, 30, 31, 34, 33, 34, 35, 36, 24, 21, 22, 21, 22, 22, 22, 21, 22, 24, 25, 25, 27, 27, 29, 29, 28, 29, 32, 31, 38, 39, 36, 35, 36, 38, 23, 24, 23, 24, 25, 26, 28, 28, 23, 24, 25, 26, 27, 33, 30, 30, 29, 32, 32, 32, 37, 37, 38, 39, 37, 39, 26, 26, 25, 30, 27, 28, 28, 26, 25, 28, 28, 28, 29, 30, 31, 33, 31, 32, 34, 35, 35, 37, 37, 38, 41];
Upper_Bound = [2, 3, 3, 18, 9, 9, 13, 16, 14, 12, 17, 14, 22, 17, 20, 27, 24, 26, 23, 30, 24, 36, 30, 29, 34, 7, 10, 8, 6, 7, 10, 12, 9, 11, 17, 12, 15, 23, 15, 17, 28, 20, 24, 21, 30, 22, 26, 28, 28, 30, 35, 18, 12, 9, 13, 9, 10, 20, 12, 13, 14, 16, 14, 19, 18, 24, 18, 20, 21, 23, 28, 26, 27, 35, 28, 47, 33, 20, 14, 10, 9, 11, 9, 15, 14, 17, 15, 16, 20, 23, 25, 26, 29, 20, 36, 24, 25, 27, 27, 36, 29, 34, 31, 19, 16, 22, 12, 30, 26, 21, 31, 29, 19, 15, 34, 27, 23, 23, 29, 26, 31, 27, 33, 37, 31, 34, 35, 36, 35, 28, 15, 21, 14, 16, 24, 19, 21, 17, 18, 21, 22, 25, 39, 28, 25, 25, 25, 32, 36, 34, 50, 34, 33, 35, 31, 19, 22, 19, 16, 17, 26, 21, 18, 29, 18, 24, 21, 31, 24, 26, 28, 33, 30, 30, 31, 32, 30, 35, 34, 39, 35, 16, 24, 17, 26, 24, 23, 23, 27, 20, 22, 21, 26, 29, 24, 26, 31, 36, 29, 28, 33, 39, 33, 60, 35, 41, 37, 30, 19, 25, 21, 26, 21, 19, 29, 25, 22, 24, 23, 49, 29, 29, 27, 36, 37, 31, 32, 31, 38, 42, 39, 37, 36, 22, 29, 23, 24, 20, 25, 20, 24, 22, 23, 24, 30, 40, 29, 29, 40, 28, 39, 41, 31, 37, 44, 37, 35, 43, 41, 26, 23, 23, 22, 24, 23, 36, 27, 26, 25, 27, 30, 28, 30, 32, 30, 31, 30, 34, 35, 41, 46, 37, 36, 40, 46, 28, 37, 29, 26, 27, 30, 29, 62, 24, 28, 26, 30, 30, 39, 42, 42, 39, 33, 33, 39, 38, 65, 45, 52, 38, 49, 31, 28, 26, 33, 34, 34, 31, 41, 30, 33, 29, 34, 31, 31, 33, 35, 32, 40, 37, 40, 42, 41, 57, 39, 46];
Start = 1;
End = 336;
Time = 46;
