graph_generation/data/sat/rcsp/hexagonal_lattice_N_12_weights-one_windows-loose.txt
N = 336;
M = 828;
Edge_Start = [1, 2, 2, 3, 3, 4, 5, 5, 5, 6, 6, 7, 7, 7, 8, 9, 9, 10, 10, 11, 11, 11, 12, 12, 13, 13, 14, 15, 16, 17, 17, 18, 19, 19, 19, 20, 20, 21, 21, 21, 22, 22, 23, 23, 23, 24, 25, 26, 27, 27, 27, 28, 28, 28, 29, 29, 29, 30, 30, 30, 31, 31, 31, 32, 32, 32, 33, 33, 34, 34, 34, 35, 35, 36, 36, 36, 37, 37, 37, 38, 38, 39, 39, 39, 40, 40, 40, 41, 41, 41, 42, 42, 42, 43, 43, 43, 44, 44, 44, 45, 45, 45, 46, 46, 46, 47, 47, 47, 48, 48, 48, 49, 49, 49, 50, 50, 50, 51, 51, 52, 53, 53, 54, 54, 54, 55, 55, 55, 56, 56, 56, 57, 57, 57, 58, 58, 58, 59, 59, 60, 60, 60, 61, 61, 62, 62, 62, 63, 63, 63, 64, 64, 64, 65, 65, 65, 66, 66, 67, 67, 67, 68, 68, 68, 69, 69, 70, 71, 71, 72, 72, 73, 73, 74, 74, 75, 75, 75, 76, 76, 76, 77, 77, 78, 78, 79, 79, 80, 80, 81, 81, 81, 82, 82, 82, 83, 83, 84, 84, 84, 85, 85, 86, 86, 86, 87, 87, 88, 88, 89, 89, 89, 90, 90, 91, 91, 92, 92, 93, 93, 93, 94, 94, 94, 95, 95, 95, 96, 96, 96, 97, 97, 98, 98, 98, 99, 99, 99, 100, 100, 101, 101, 101, 102, 102, 102, 103, 103, 104, 104, 105, 105, 105, 106, 106, 106, 107, 107, 108, 109, 109, 110, 110, 110, 111, 111, 112, 112, 112, 113, 113, 113, 114, 114, 115, 115, 116, 116, 117, 117, 117, 118, 118, 118, 119, 119, 119, 120, 120, 120, 121, 121, 121, 122, 122, 123, 124, 125, 125, 125, 126, 126, 127, 127, 127, 128, 128, 128, 129, 129, 130, 130, 131, 131, 131, 132, 132, 132, 133, 133, 133, 134, 134, 135, 135, 135, 136, 136, 136, 137, 138, 138, 139, 139, 139, 140, 140, 141, 141, 141, 142, 142, 142, 143, 143, 144, 145, 145, 146, 146, 146, 147, 147, 147, 148, 149, 149, 150, 150, 151, 151, 151, 152, 153, 154, 154, 155, 155, 156, 156, 157, 157, 158, 158, 159, 159, 159, 160, 160, 160, 161, 161, 161, 162, 162, 162, 163, 163, 164, 164, 164, 165, 165, 165, 166, 166, 166, 167, 167, 167, 168, 168, 169, 170, 170, 171, 171, 171, 172, 172, 172, 173, 173, 173, 174, 174, 174, 175, 175, 175, 176, 176, 176, 177, 177, 177, 178, 178, 178, 179, 179, 179, 180, 180, 180, 181, 181, 182, 182, 183, 183, 183, 184, 184, 184, 185, 185, 185, 186, 186, 186, 187, 187, 187, 188, 188, 188, 189, 189, 189, 190, 190, 190, 191, 191, 191, 192, 192, 192, 193, 193, 193, 194, 194, 194, 195, 195, 195, 196, 196, 196, 197, 197, 198, 198, 199, 199, 199, 200, 200, 200, 201, 201, 201, 202, 202, 202, 203, 203, 203, 204, 204, 204, 205, 205, 205, 206, 206, 206, 207, 207, 208, 208, 209, 209, 209, 210, 210, 210, 211, 211, 211, 212, 212, 212, 213, 213, 213, 214, 214, 214, 215, 215, 215, 216, 216, 216, 217, 217, 217, 218, 218, 219, 219, 220, 220, 220, 221, 221, 221, 222, 222, 223, 223, 223, 224, 224, 224, 225, 225, 226, 226, 227, 227, 227, 228, 228, 228, 229, 229, 229, 230, 230, 230, 231, 231, 231, 232, 232, 232, 233, 233, 234, 234, 235, 235, 236, 236, 237, 237, 237, 238, 238, 238, 239, 239, 239, 240, 240, 240, 241, 241, 241, 242, 242, 242, 243, 243, 243, 244, 244, 244, 245, 245, 246, 246, 247, 247, 248, 248, 249, 249, 249, 250, 250, 250, 251, 251, 251, 252, 252, 252, 253, 253, 254, 255, 256, 256, 256, 257, 257, 257, 258, 258, 258, 259, 259, 260, 260, 261, 261, 262, 262, 263, 263, 263, 264, 265, 265, 266, 266, 267, 267, 267, 268, 268, 268, 269, 269, 269, 270, 270, 270, 271, 271, 271, 272, 272, 273, 273, 274, 274, 274, 275, 275, 275, 276, 276, 276, 277, 277, 278, 278, 279, 279, 280, 280, 281, 281, 282, 282, 282, 283, 283, 283, 284, 284, 284, 285, 285, 286, 286, 287, 287, 287, 288, 288, 288, 289, 289, 289, 290, 290, 291, 291, 291, 292, 292, 293, 293, 294, 294, 295, 295, 296, 296, 297, 297, 297, 298, 298, 299, 299, 300, 301, 301, 302, 302, 302, 303, 303, 303, 304, 304, 304, 305, 306, 306, 307, 307, 307, 308, 308, 308, 309, 309, 309, 310, 310, 310, 311, 311, 312, 312, 313, 313, 314, 314, 314, 315, 315, 316, 316, 316, 317, 317, 318, 318, 318, 319, 319, 320, 320, 321, 322, 322, 322, 323, 323, 324, 324, 324, 325, 326, 326, 327, 327, 328, 328, 328, 329, 329, 330, 330, 331, 331, 332, 332, 332, 333, 333, 334, 334, 334, 335, 335, 336, 336];
Edge_End = [2, 1, 3, 2, 28, 5, 4, 6, 30, 5, 7, 6, 8, 32, 7, 10, 34, 9, 11, 10, 12, 36, 11, 13, 12, 14, 13, 40, 17, 16, 42, 19, 18, 20, 44, 19, 21, 20, 22, 46, 21, 23, 22, 24, 48, 23, 50, 27, 26, 28, 53, 3, 27, 29, 28, 30, 55, 5, 29, 31, 30, 32, 57, 7, 31, 33, 32, 34, 9, 33, 35, 34, 36, 11, 35, 37, 36, 38, 63, 37, 39, 38, 40, 65, 15, 39, 41, 40, 42, 67, 17, 41, 43, 42, 44, 69, 19, 43, 45, 44, 46, 71, 21, 45, 47, 46, 48, 73, 23, 47, 49, 48, 50, 75, 25, 49, 51, 50, 77, 78, 27, 54, 53, 55, 80, 29, 54, 56, 55, 57, 82, 31, 56, 58, 57, 59, 84, 58, 60, 59, 61, 86, 60, 62, 61, 63, 88, 37, 62, 64, 63, 65, 90, 39, 64, 66, 65, 67, 41, 66, 68, 67, 69, 94, 43, 68, 96, 45, 72, 71, 98, 47, 74, 73, 75, 49, 74, 76, 75, 77, 102, 51, 76, 52, 79, 78, 105, 54, 81, 80, 82, 107, 56, 81, 83, 82, 84, 58, 83, 85, 84, 86, 60, 85, 87, 86, 113, 62, 89, 88, 90, 115, 64, 89, 92, 117, 91, 93, 92, 94, 119, 68, 93, 95, 94, 96, 121, 70, 95, 97, 96, 98, 72, 97, 99, 98, 100, 125, 99, 101, 100, 102, 127, 76, 101, 103, 102, 129, 105, 130, 79, 104, 106, 105, 107, 132, 81, 106, 109, 108, 110, 109, 111, 136, 110, 112, 111, 113, 138, 87, 112, 114, 113, 115, 89, 114, 117, 142, 91, 116, 118, 117, 119, 144, 93, 118, 120, 119, 121, 146, 95, 120, 122, 121, 123, 122, 125, 99, 124, 126, 125, 127, 101, 126, 128, 127, 129, 154, 103, 128, 104, 131, 130, 132, 157, 106, 131, 133, 132, 134, 159, 133, 135, 134, 136, 161, 110, 135, 137, 136, 112, 139, 138, 140, 165, 139, 141, 140, 142, 167, 116, 141, 143, 142, 169, 118, 146, 171, 120, 145, 147, 146, 148, 173, 147, 150, 175, 149, 151, 150, 152, 177, 151, 179, 128, 155, 154, 181, 157, 182, 131, 156, 159, 184, 133, 158, 160, 159, 161, 186, 135, 160, 162, 161, 163, 188, 162, 164, 163, 165, 190, 139, 164, 166, 165, 167, 192, 141, 166, 168, 167, 194, 143, 171, 196, 145, 170, 172, 171, 173, 198, 147, 172, 174, 173, 175, 200, 149, 174, 176, 175, 177, 202, 151, 176, 178, 177, 179, 204, 153, 178, 180, 179, 181, 206, 155, 180, 156, 183, 182, 184, 209, 158, 183, 185, 184, 186, 211, 160, 185, 187, 186, 188, 213, 162, 187, 189, 188, 190, 215, 164, 189, 191, 190, 192, 217, 166, 191, 193, 192, 194, 219, 168, 193, 195, 194, 196, 221, 170, 195, 197, 196, 223, 172, 199, 198, 200, 225, 174, 199, 201, 200, 202, 227, 176, 201, 203, 202, 204, 229, 178, 203, 205, 204, 206, 231, 180, 205, 207, 206, 233, 209, 234, 183, 208, 210, 209, 211, 236, 185, 210, 212, 211, 213, 238, 187, 212, 214, 213, 215, 240, 189, 214, 216, 215, 217, 242, 191, 216, 218, 217, 244, 193, 220, 219, 221, 246, 195, 220, 222, 221, 223, 197, 222, 224, 223, 225, 250, 199, 224, 227, 252, 201, 226, 228, 227, 229, 254, 203, 228, 230, 229, 231, 256, 205, 230, 232, 231, 233, 258, 207, 232, 208, 235, 234, 261, 210, 237, 236, 238, 263, 212, 237, 239, 238, 240, 265, 214, 239, 241, 240, 242, 267, 216, 241, 243, 242, 244, 269, 218, 243, 245, 244, 271, 220, 247, 246, 248, 247, 249, 248, 250, 275, 224, 249, 251, 250, 252, 277, 226, 251, 253, 252, 279, 228, 256, 230, 255, 257, 256, 258, 283, 232, 257, 259, 258, 285, 261, 286, 235, 260, 263, 288, 237, 262, 264, 263, 239, 266, 265, 267, 241, 266, 268, 267, 269, 294, 243, 268, 270, 269, 271, 296, 245, 270, 272, 271, 273, 272, 274, 273, 275, 300, 249, 274, 276, 275, 277, 302, 251, 276, 279, 304, 253, 278, 281, 306, 280, 282, 281, 283, 308, 257, 282, 284, 283, 285, 310, 259, 284, 260, 287, 286, 288, 312, 262, 287, 289, 288, 290, 314, 289, 291, 290, 292, 316, 291, 293, 292, 318, 268, 295, 294, 320, 270, 297, 296, 298, 322, 297, 299, 298, 324, 274, 302, 326, 276, 301, 303, 302, 304, 328, 278, 303, 305, 304, 280, 307, 306, 308, 332, 282, 307, 309, 308, 310, 334, 284, 309, 311, 310, 336, 287, 313, 312, 314, 289, 313, 315, 314, 316, 291, 315, 317, 316, 318, 293, 317, 319, 318, 320, 295, 319, 322, 297, 321, 323, 322, 324, 299, 323, 325, 324, 301, 327, 326, 328, 303, 327, 329, 328, 330, 329, 331, 330, 332, 307, 331, 333, 332, 334, 309, 333, 335, 334, 336, 311, 335];
L = [1, 1, 1, 1, 1, 1, 1, 1, 1, 1, 1, 1, 1, 1, 1, 1, 1, 1, 1, 1, 1, 1, 1, 1, 1, 1, 1, 1, 1, 1, 1, 1, 1, 1, 1, 1, 1, 1, 1, 1, 1, 1, 1, 1, 1, 1, 1, 1, 1, 1, 1, 1, 1, 1, 1, 1, 1, 1, 1, 1, 1, 1, 1, 1, 1, 1, 1, 1, 1, 1, 1, 1, 1, 1, 1, 1, 1, 1, 1, 1, 1, 1, 1, 1, 1, 1, 1, 1, 1, 1, 1, 1, 1, 1, 1, 1, 1, 1, 1, 1, 1, 1, 1, 1, 1, 1, 1, 1, 1, 1, 1, 1, 1, 1, 1, 1, 1, 1, 1, 1, 1, 1, 1, 1, 1, 1, 1, 1, 1, 1, 1, 1, 1, 1, 1, 1, 1, 1, 1, 1, 1, 1, 1, 1, 1, 1, 1, 1, 1, 1, 1, 1, 1, 1, 1, 1, 1, 1, 1, 1, 1, 1, 1, 1, 1, 1, 1, 1, 1, 1, 1, 1, 1, 1, 1, 1, 1, 1, 1, 1, 1, 1, 1, 1, 1, 1, 1, 1, 1, 1, 1, 1, 1, 1, 1, 1, 1, 1, 1, 1, 1, 1, 1, 1, 1, 1, 1, 1, 1, 1, 1, 1, 1, 1, 1, 1, 1, 1, 1, 1, 1, 1, 1, 1, 1, 1, 1, 1, 1, 1, 1, 1, 1, 1, 1, 1, 1, 1, 1, 1, 1, 1, 1, 1, 1, 1, 1, 1, 1, 1, 1, 1, 1, 1, 1, 1, 1, 1, 1, 1, 1, 1, 1, 1, 1, 1, 1, 1, 1, 1, 1, 1, 1, 1, 1, 1, 1, 1, 1, 1, 1, 1, 1, 1, 1, 1, 1, 1, 1, 1, 1, 1, 1, 1, 1, 1, 1, 1, 1, 1, 1, 1, 1, 1, 1, 1, 1, 1, 1, 1, 1, 1, 1, 1, 1, 1, 1, 1, 1, 1, 1, 1, 1, 1, 1, 1, 1, 1, 1, 1, 1, 1, 1, 1, 1, 1, 1, 1, 1, 1, 1, 1, 1, 1, 1, 1, 1, 1, 1, 1, 1, 1, 1, 1, 1, 1, 1, 1, 1, 1, 1, 1, 1, 1, 1, 1, 1, 1, 1, 1, 1, 1, 1, 1, 1, 1, 1, 1, 1, 1, 1, 1, 1, 1, 1, 1, 1, 1, 1, 1, 1, 1, 1, 1, 1, 1, 1, 1, 1, 1, 1, 1, 1, 1, 1, 1, 1, 1, 1, 1, 1, 1, 1, 1, 1, 1, 1, 1, 1, 1, 1, 1, 1, 1, 1, 1, 1, 1, 1, 1, 1, 1, 1, 1, 1, 1, 1, 1, 1, 1, 1, 1, 1, 1, 1, 1, 1, 1, 1, 1, 1, 1, 1, 1, 1, 1, 1, 1, 1, 1, 1, 1, 1, 1, 1, 1, 1, 1, 1, 1, 1, 1, 1, 1, 1, 1, 1, 1, 1, 1, 1, 1, 1, 1, 1, 1, 1, 1, 1, 1, 1, 1, 1, 1, 1, 1, 1, 1, 1, 1, 1, 1, 1, 1, 1, 1, 1, 1, 1, 1, 1, 1, 1, 1, 1, 1, 1, 1, 1, 1, 1, 1, 1, 1, 1, 1, 1, 1, 1, 1, 1, 1, 1, 1, 1, 1, 1, 1, 1, 1, 1, 1, 1, 1, 1, 1, 1, 1, 1, 1, 1, 1, 1, 1, 1, 1, 1, 1, 1, 1, 1, 1, 1, 1, 1, 1, 1, 1, 1, 1, 1, 1, 1, 1, 1, 1, 1, 1, 1, 1, 1, 1, 1, 1, 1, 1, 1, 1, 1, 1, 1, 1, 1, 1, 1, 1, 1, 1, 1, 1, 1, 1, 1, 1, 1, 1, 1, 1, 1, 1, 1, 1, 1, 1, 1, 1, 1, 1, 1, 1, 1, 1, 1, 1, 1, 1, 1, 1, 1, 1, 1, 1, 1, 1, 1, 1, 1, 1, 1, 1, 1, 1, 1, 1, 1, 1, 1, 1, 1, 1, 1, 1, 1, 1, 1, 1, 1, 1, 1, 1, 1, 1, 1, 1, 1, 1, 1, 1, 1, 1, 1, 1, 1, 1, 1, 1, 1, 1, 1, 1, 1, 1, 1, 1, 1, 1, 1, 1, 1, 1, 1, 1, 1, 1, 1, 1, 1, 1, 1, 1, 1, 1, 1, 1, 1, 1, 1, 1, 1, 1, 1, 1, 1, 1, 1, 1, 1, 1, 1, 1, 1, 1, 1, 1, 1, 1, 1, 1, 1, 1, 1, 1, 1, 1, 1, 1, 1, 1, 1, 1, 1, 1, 1, 1, 1, 1, 1, 1, 1, 1, 1, 1, 1, 1, 1, 1, 1, 1, 1, 1, 1, 1, 1, 1, 1, 1, 1, 1, 1, 1, 1, 1, 1, 1, 1, 1, 1, 1, 1, 1, 1, 1, 1, 1, 1, 1, 1, 1, 1, 1, 1, 1, 1, 1, 1, 1, 1, 1, 1, 1, 1, 1, 1, 1, 1, 1, 1, 1, 1, 1, 1, 1, 1, 1, 1, 1, 1, 1, 1, 1, 1, 1, 1, 1, 1, 1, 1, 1];
T = [1, 1, 1, 1, 1, 1, 1, 1, 1, 1, 1, 1, 1, 1, 1, 1, 1, 1, 1, 1, 1, 1, 1, 1, 1, 1, 1, 1, 1, 1, 1, 1, 1, 1, 1, 1, 1, 1, 1, 1, 1, 1, 1, 1, 1, 1, 1, 1, 1, 1, 1, 1, 1, 1, 1, 1, 1, 1, 1, 1, 1, 1, 1, 1, 1, 1, 1, 1, 1, 1, 1, 1, 1, 1, 1, 1, 1, 1, 1, 1, 1, 1, 1, 1, 1, 1, 1, 1, 1, 1, 1, 1, 1, 1, 1, 1, 1, 1, 1, 1, 1, 1, 1, 1, 1, 1, 1, 1, 1, 1, 1, 1, 1, 1, 1, 1, 1, 1, 1, 1, 1, 1, 1, 1, 1, 1, 1, 1, 1, 1, 1, 1, 1, 1, 1, 1, 1, 1, 1, 1, 1, 1, 1, 1, 1, 1, 1, 1, 1, 1, 1, 1, 1, 1, 1, 1, 1, 1, 1, 1, 1, 1, 1, 1, 1, 1, 1, 1, 1, 1, 1, 1, 1, 1, 1, 1, 1, 1, 1, 1, 1, 1, 1, 1, 1, 1, 1, 1, 1, 1, 1, 1, 1, 1, 1, 1, 1, 1, 1, 1, 1, 1, 1, 1, 1, 1, 1, 1, 1, 1, 1, 1, 1, 1, 1, 1, 1, 1, 1, 1, 1, 1, 1, 1, 1, 1, 1, 1, 1, 1, 1, 1, 1, 1, 1, 1, 1, 1, 1, 1, 1, 1, 1, 1, 1, 1, 1, 1, 1, 1, 1, 1, 1, 1, 1, 1, 1, 1, 1, 1, 1, 1, 1, 1, 1, 1, 1, 1, 1, 1, 1, 1, 1, 1, 1, 1, 1, 1, 1, 1, 1, 1, 1, 1, 1, 1, 1, 1, 1, 1, 1, 1, 1, 1, 1, 1, 1, 1, 1, 1, 1, 1, 1, 1, 1, 1, 1, 1, 1, 1, 1, 1, 1, 1, 1, 1, 1, 1, 1, 1, 1, 1, 1, 1, 1, 1, 1, 1, 1, 1, 1, 1, 1, 1, 1, 1, 1, 1, 1, 1, 1, 1, 1, 1, 1, 1, 1, 1, 1, 1, 1, 1, 1, 1, 1, 1, 1, 1, 1, 1, 1, 1, 1, 1, 1, 1, 1, 1, 1, 1, 1, 1, 1, 1, 1, 1, 1, 1, 1, 1, 1, 1, 1, 1, 1, 1, 1, 1, 1, 1, 1, 1, 1, 1, 1, 1, 1, 1, 1, 1, 1, 1, 1, 1, 1, 1, 1, 1, 1, 1, 1, 1, 1, 1, 1, 1, 1, 1, 1, 1, 1, 1, 1, 1, 1, 1, 1, 1, 1, 1, 1, 1, 1, 1, 1, 1, 1, 1, 1, 1, 1, 1, 1, 1, 1, 1, 1, 1, 1, 1, 1, 1, 1, 1, 1, 1, 1, 1, 1, 1, 1, 1, 1, 1, 1, 1, 1, 1, 1, 1, 1, 1, 1, 1, 1, 1, 1, 1, 1, 1, 1, 1, 1, 1, 1, 1, 1, 1, 1, 1, 1, 1, 1, 1, 1, 1, 1, 1, 1, 1, 1, 1, 1, 1, 1, 1, 1, 1, 1, 1, 1, 1, 1, 1, 1, 1, 1, 1, 1, 1, 1, 1, 1, 1, 1, 1, 1, 1, 1, 1, 1, 1, 1, 1, 1, 1, 1, 1, 1, 1, 1, 1, 1, 1, 1, 1, 1, 1, 1, 1, 1, 1, 1, 1, 1, 1, 1, 1, 1, 1, 1, 1, 1, 1, 1, 1, 1, 1, 1, 1, 1, 1, 1, 1, 1, 1, 1, 1, 1, 1, 1, 1, 1, 1, 1, 1, 1, 1, 1, 1, 1, 1, 1, 1, 1, 1, 1, 1, 1, 1, 1, 1, 1, 1, 1, 1, 1, 1, 1, 1, 1, 1, 1, 1, 1, 1, 1, 1, 1, 1, 1, 1, 1, 1, 1, 1, 1, 1, 1, 1, 1, 1, 1, 1, 1, 1, 1, 1, 1, 1, 1, 1, 1, 1, 1, 1, 1, 1, 1, 1, 1, 1, 1, 1, 1, 1, 1, 1, 1, 1, 1, 1, 1, 1, 1, 1, 1, 1, 1, 1, 1, 1, 1, 1, 1, 1, 1, 1, 1, 1, 1, 1, 1, 1, 1, 1, 1, 1, 1, 1, 1, 1, 1, 1, 1, 1, 1, 1, 1, 1, 1, 1, 1, 1, 1, 1, 1, 1, 1, 1, 1, 1, 1, 1, 1, 1, 1, 1, 1, 1, 1, 1, 1, 1, 1, 1, 1, 1, 1, 1, 1, 1, 1, 1, 1, 1, 1, 1, 1, 1, 1, 1, 1, 1, 1, 1, 1, 1, 1, 1, 1, 1, 1, 1, 1, 1, 1, 1, 1, 1, 1, 1, 1, 1, 1, 1, 1, 1, 1, 1, 1, 1, 1, 1, 1, 1, 1, 1, 1, 1, 1, 1, 1, 1, 1, 1, 1, 1, 1, 1, 1, 1, 1, 1, 1, 1, 1, 1, 1, 1, 1, 1, 1, 1, 1, 1, 1, 1, 1, 1, 1, 1, 1, 1, 1, 1, 1, 1, 1, 1, 1, 1, 1, 1, 1, 1, 1, 1];
Lower_Bound = [0, 4, 2, 7, 7, 7, 10, 9, 13, 11, 12, 13, 14, 15, 16, 19, 19, 22, 20, 22, 23, 25, 24, 27, 26, 5, 6, 3, 4, 6, 6, 7, 8, 9, 10, 14, 12, 13, 14, 15, 17, 19, 18, 19, 20, 21, 22, 23, 25, 25, 26, 14, 5, 7, 5, 6, 7, 10, 9, 11, 12, 12, 13, 15, 16, 16, 17, 18, 19, 22, 21, 22, 23, 24, 26, 26, 27, 13, 12, 7, 10, 7, 9, 9, 10, 11, 13, 13, 14, 15, 22, 21, 20, 20, 20, 24, 22, 23, 25, 25, 27, 27, 28, 12, 12, 10, 9, 19, 18, 16, 16, 15, 13, 14, 15, 20, 21, 22, 21, 23, 24, 23, 23, 26, 26, 26, 27, 32, 29, 14, 12, 13, 12, 13, 15, 15, 16, 15, 16, 17, 18, 19, 21, 24, 24, 23, 24, 25, 29, 31, 30, 31, 33, 30, 30, 15, 14, 14, 13, 14, 15, 17, 17, 18, 17, 18, 19, 20, 21, 24, 26, 26, 27, 27, 27, 28, 30, 30, 31, 32, 32, 15, 17, 15, 16, 16, 19, 17, 18, 19, 20, 20, 20, 22, 22, 23, 24, 27, 28, 27, 28, 31, 30, 31, 32, 33, 34, 18, 17, 18, 17, 20, 19, 18, 19, 20, 21, 23, 23, 24, 23, 26, 25, 28, 27, 30, 29, 30, 31, 32, 33, 34, 35, 19, 20, 22, 20, 19, 20, 19, 23, 21, 22, 23, 24, 23, 24, 25, 26, 27, 30, 29, 30, 31, 34, 33, 34, 35, 37, 22, 21, 22, 21, 22, 22, 22, 21, 22, 24, 24, 28, 27, 27, 28, 27, 29, 29, 32, 31, 39, 37, 36, 35, 36, 37, 23, 24, 23, 24, 26, 26, 28, 28, 24, 25, 25, 27, 31, 28, 29, 30, 29, 30, 31, 33, 39, 37, 37, 39, 38, 38, 25, 27, 29, 26, 27, 28, 27, 26, 26, 28, 27, 28, 31, 30, 31, 33, 31, 32, 33, 34, 35, 36, 37, 38, 39];
Upper_Bound = [5, 9, 3, 10, 14, 11, 16, 11, 16, 14, 15, 27, 15, 18, 18, 21, 27, 23, 21, 26, 26, 31, 25, 29, 31, 14, 7, 4, 6, 19, 7, 16, 11, 19, 12, 29, 16, 14, 17, 21, 18, 22, 20, 25, 21, 25, 24, 39, 29, 31, 30, 15, 9, 11, 8, 9, 14, 13, 14, 15, 13, 14, 15, 19, 20, 18, 18, 19, 23, 25, 26, 25, 35, 30, 30, 28, 31, 15, 21, 10, 14, 8, 22, 12, 14, 12, 14, 16, 28, 18, 24, 24, 25, 27, 21, 25, 27, 28, 29, 29, 32, 29, 30, 15, 14, 12, 12, 32, 22, 17, 18, 17, 16, 18, 20, 22, 23, 24, 22, 29, 31, 25, 27, 35, 30, 29, 30, 35, 37, 44, 26, 14, 13, 15, 16, 20, 17, 22, 19, 19, 19, 32, 22, 35, 25, 26, 29, 33, 38, 36, 34, 32, 43, 35, 31, 19, 17, 17, 17, 16, 21, 20, 25, 20, 27, 19, 20, 24, 23, 25, 29, 31, 30, 28, 28, 29, 34, 32, 36, 35, 36, 30, 18, 24, 22, 18, 23, 27, 21, 20, 21, 21, 29, 24, 25, 27, 25, 42, 30, 38, 38, 44, 35, 36, 33, 37, 35, 22, 31, 22, 33, 23, 23, 32, 37, 23, 23, 25, 30, 29, 24, 27, 31, 40, 37, 32, 40, 32, 32, 37, 35, 44, 54, 22, 24, 30, 21, 21, 26, 20, 24, 22, 24, 27, 34, 24, 28, 26, 28, 34, 34, 32, 31, 36, 35, 43, 39, 39, 41, 34, 23, 33, 23, 26, 37, 28, 23, 23, 26, 28, 30, 29, 32, 33, 31, 33, 39, 35, 33, 40, 43, 39, 37, 39, 46, 31, 30, 26, 25, 27, 27, 32, 31, 43, 30, 39, 38, 33, 30, 31, 31, 33, 50, 34, 39, 41, 44, 38, 41, 39, 42, 31, 30, 35, 36, 28, 38, 29, 30, 29, 33, 30, 30, 33, 45, 35, 46, 42, 37, 36, 35, 38, 41, 39, 46, 41];
Start = 1;
End = 336;
Time = 41;
